121
1000000
130813
60278
161435
38489
159853
219820
112151
133523
184475
130246
146813
242476
136577
116370
47838
104796
29399
215638
167086
173235
229369
212988
224719
75546
189814
143669
246924
162363
39794
197293
224960
190869
132885
193359
246477
143607
223924
41961
205945
142091
22615
105626
113903
193052
85
199843
45534
34533
171623
64875
242202
73715
51
57739
234871
38938
223258
203996
474
4597
78349
178526
126207
215178
105898
214850
50039
75504
97772
597
194046
86675
4102
92239
165427
242764
85223
58520
213659
14104
96915
36895
97778
25720
232217
798
166669
55791
6330
178693
116881
229940
159131
89764
248881
105257
18898
160468
191744
175038
151275
163174
145615
563
41463
112471
4152
231226
35460
240121
249180
104996
31600
92033
34701
105467
82297
61521
86280
15767
105753
